log/Reading instance from file data/g08.dat
Number of nodes: 401
Number of edges: 4400
initialize CPLEX ... done.
Calling CPLEX solve ...
Version identifier: 12.10.0.0 | 2019-11-26 | 843d4de
CPXPARAM_Threads                                 1
CPXPARAM_TimeLimit                               3600
CPXPARAM_WorkMem                                 8192
Tried aggregator 1 time.
MIP Presolve eliminated 803 rows and 402 columns.
MIP Presolve modified 10400 coefficients.
Reduced MIP has 9603 rows, 9200 columns, and 51600 nonzeros.
Reduced MIP has 8800 binaries, 400 generals, 0 SOSs, and 0 indicators.
Presolve time = 0.04 sec. (35.00 ticks)
Probing time = 0.01 sec. (4.53 ticks)
Tried aggregator 1 time.
Detecting symmetries...
Reduced MIP has 9603 rows, 9200 columns, and 51600 nonzeros.
Reduced MIP has 8800 binaries, 400 generals, 0 SOSs, and 0 indicators.
Presolve time = 0.03 sec. (31.41 ticks)
Probing time = 0.01 sec. (4.12 ticks)
Clique table members: 12401.
MIP emphasis: balance optimality and feasibility.
MIP search method: dynamic search.
Parallel mode: none, using 1 thread.
Root relaxation solution time = 0.02 sec. (34.60 ticks)

        Nodes                                         Cuts/
   Node  Left     Objective  IInf  Best Integer    Best Bound    ItCnt     Gap

      0     0     2818.8060   244                   2818.8060      833         
      0     0     4100.3830   244                   Cuts: 503     1607         
      0     0     4835.8971   244                   Cuts: 320     1932         
      0     0     5263.0949   244                   Cuts: 345     2358         
      0     0     5443.6275   244                   Cuts: 178     2550         
      0     0     5551.8478   244                   Cuts: 158     2740         
Detecting symmetries...
      0     0     5608.7293   244                   Cuts: 197     2900         
      0     0     5651.9022   244                    Cuts: 87     2982         
      0     0     5692.2803   244                    Cuts: 72     3089         
      0     0     5704.0440   244                    Cuts: 49     3184         
      0     0     5709.0100   244                    Cuts: 57     3230         
      0     0     5710.0299   244                    Cuts: 12     3244         
      0     0     5713.0000   244                    Cuts: 29     3265         
      0     0     5713.0000   244                    Cuts: 16     3281         
      0     0     5713.0000   244                    Cuts: 39     3349         
      0     0     5713.0000   244                    Cuts: 34     3372         
Detecting symmetries...
      0     2     5713.0000   107                   5713.0000     3372         
Elapsed time = 2.07 sec. (3010.22 ticks, tree = 0.01 MB, solutions = 0)
     30    31     5756.2176    14                   5713.0000     3972         
     58    56     5874.1453    47                   5713.0000     4398         
*    95    88      integral     0     6265.0000     5713.0000     5019    8.81%
*   116    99      integral     0     6218.0000     5713.0000     5327    8.12%
    140   123     5716.0806    40     6218.0000     5713.0500     5780    8.12%
    180   149     5791.0417     5     6218.0000     5713.0500     6397    8.12%
*   197   121      integral     0     5896.0000     5713.0500     6756    3.10%
    245   160     5713.5166   111     5896.0000     5713.0749     7534    3.10%
*   297+  139                         5797.0000     5713.0749             1.45%
    297   141     5728.6649    80     5797.0000     5714.0000     8105    1.43%
    506   293     5763.2145    92     5797.0000     5714.0000    10884    1.43%
Elapsed time = 3.94 sec. (5981.38 ticks, tree = 1.65 MB, solutions = 4)
*   600+  360                         5794.0000     5714.0249             1.38%
    720   467     5716.0904    50     5794.0000     5714.0274    14017    1.38%
    912   607     5714.4187    47     5794.0000     5714.0381    17113    1.38%

Performing restart 1

Repeating presolve.
Tried aggregator 2 times.
MIP Presolve eliminated 6980 rows and 6920 columns.
MIP Presolve modified 1264 coefficients.
Aggregator did 70 substitutions.
Reduced MIP has 2553 rows, 2210 columns, and 9541 nonzeros.
Reduced MIP has 1853 binaries, 357 generals, 0 SOSs, and 0 indicators.
Presolve time = 0.02 sec. (19.71 ticks)
Tried aggregator 1 time.
Reduced MIP has 2553 rows, 2210 columns, and 9541 nonzeros.
Reduced MIP has 1853 binaries, 357 generals, 0 SOSs, and 0 indicators.
Presolve time = 0.01 sec. (6.94 ticks)
Represolve time = 0.05 sec. (54.30 ticks)
    934     0     5716.0074    53     5794.0000      Cuts: 28    18698    1.35%
    934     0     5720.0149    53     5794.0000      Cuts: 29    18739    1.28%
    934     0     5725.0000    53     5794.0000      Cuts: 26    18777    1.19%
    934     0     5726.0000    53     5794.0000      Cuts: 41    18804    1.17%
    934     0     5726.0000    53     5794.0000      Cuts: 24    18816    1.17%
    934     0     5726.0100    53     5794.0000      Cuts: 13    18829    1.17%
    934     0     5728.0000    53     5794.0000      Cuts: 36    18850    1.14%
    934     0     5728.0000    53     5794.0000      Cuts: 25    18863    1.14%
    934     0     5728.0000    53     5794.0000      Cuts: 14    18877    1.14%
    934     0     5728.0000    53     5794.0000       Cuts: 3    18879    1.14%
*   934+    0                         5791.0000     5728.0000             1.09%
    936     4     5728.0249   148     5791.0000     5728.0373    18887    1.09%
*  1013    40      integral     0     5790.0000     5731.0796    19590    1.02%
   1014    40     5739.0497    37     5790.0000     5731.5572    19628    1.01%
*  1033    42      integral     0     5787.0000     5731.5572    19959    0.96%
   1150    90     5756.6294    90     5787.0000     5736.0000    21248    0.88%
   1316   185     5779.3881    85     5787.0000     5739.0000    23116    0.83%
   1467   251     5788.3483    26     5787.0000     5742.5473    25436    0.77%
   1661   326        cutoff           5787.0000     5753.5000    28173    0.58%
   1929   472     5766.2979   142     5787.0000     5756.1592    30589    0.53%
Elapsed time = 10.70 sec. (14923.94 ticks, tree = 0.92 MB, solutions = 8)
   2184   585     5772.1642    33     5787.0000     5757.0565    33795    0.52%
   2502   724     5764.1965    27     5787.0000     5758.0000    37203    0.50%
   2761   837     5759.8209    74     5787.0000     5758.6418    40479    0.49%
   3110  1015     5760.8209    18     5787.0000     5759.3400    44693    0.48%
   3469  1135     5782.0000    21     5787.0000     5760.1393    48755    0.46%
   3768  1170     5764.4590   140     5787.0000     5761.0050    52944    0.45%
   4090  1223     5762.0896    17     5787.0000     5762.0744    57097    0.43%
   4336  1244        cutoff           5787.0000     5762.6608    60598    0.42%
   4695  1400        cutoff           5787.0000     5763.1592    65154    0.41%
   5008  1464     5783.0347    56     5787.0000     5763.9769    68828    0.40%
Elapsed time = 19.86 sec. (24484.35 ticks, tree = 3.48 MB, solutions = 8)
   5283  1451     5771.1007    16     5787.0000     5764.6874    72975    0.39%
   5581  1490     5781.2308    34     5787.0000     5765.2125    77242    0.38%
   5888  1507        cutoff           5787.0000     5766.0348    81512    0.36%
   6191  1500     5766.9154    18     5787.0000     5766.9200    85702    0.35%
   6488  1506     5781.0846    16     5787.0000     5767.5245    89673    0.34%
   6723  1528        cutoff           5787.0000     5768.0348    93749    0.33%
   7016  1567     5769.3284     4     5787.0000     5768.6900    97778    0.32%
   7321  1602     5783.0746    24     5787.0000     5769.1343   101941    0.31%
   7594  1637     5778.2612    90     5787.0000     5769.5572   105925    0.30%
   7857  1622        cutoff           5787.0000     5770.0000   110116    0.29%
Elapsed time = 29.33 sec. (34052.37 ticks, tree = 4.27 MB, solutions = 8)
   8165  1635        cutoff           5787.0000     5770.6045   113839    0.28%
   8448  1656     5776.0000     6     5787.0000     5771.0547   118235    0.28%
   8708  1630        cutoff           5787.0000     5771.5709   122280    0.27%
   8958  1604        cutoff           5787.0000     5772.0498   126476    0.26%
   9220  1582     5779.0449    55     5787.0000     5772.5116   130183    0.25%
   9485  1568        cutoff           5787.0000     5773.0633   134050    0.24%
   9754  1502     5780.7500    45     5787.0000     5773.7164   137882    0.23%
  10014  1481     5784.0000    15     5787.0000     5774.3408   141144    0.22%
  10274  1418     5778.1642    85     5787.0000     5775.0400   144535    0.21%
  10275  1417        cutoff           5787.0000     5775.0448   144540    0.21%
Elapsed time = 39.15 sec. (43980.57 ticks, tree = 3.92 MB, solutions = 8)
  10526  1382     5777.0000     2     5787.0000     5775.6675   148246    0.20%
  10779  1333     5779.5821    12     5787.0000     5776.2090   151843    0.19%
  11052  1239     5780.5821     2     5787.0000     5777.0000   155710    0.17%
  11333  1162     5785.9055    25     5787.0000     5777.7108   159168    0.16%
  11599  1097     5779.7537    16     5787.0000     5778.2587   162453    0.15%
  11898  1006        cutoff           5787.0000     5779.0000   166351    0.14%
  12181   915     5798.8750    50     5787.0000     5779.5486   170043    0.13%
  12514   780     5783.2786     2     5787.0000     5780.5600   173756    0.11%
  12908   579        cutoff           5787.0000     5782.0000   177687    0.09%
  13293   363        cutoff           5787.0000     5783.2840   181088    0.06%
Elapsed time = 47.97 sec. (53545.87 ticks, tree = 1.13 MB, solutions = 8)
  13689    78        cutoff           5787.0000     5785.4876   184096    0.03%

GUB cover cuts applied:  6
Clique cuts applied:  342
Cover cuts applied:  109
Implied bound cuts applied:  123
Flow cuts applied:  17
Mixed integer rounding cuts applied:  126
Zero-half cuts applied:  43
Lift and project cuts applied:  1
Gomory fractional cuts applied:  98

Root node processing (before b&c):
  Real time             =    2.06 sec. (2999.41 ticks)
Sequential b&c:
  Real time             =   46.86 sec. (51687.47 ticks)
                          ------------
Total (root+branch&cut) =   48.92 sec. (54686.88 ticks)
SOLUTION:

x(0,258)[0..1]  = 1
x(2,140)[0..1]  = 1
x(2,92)[0..1]  = 1
x(2,281)[0..1]  = 1
x(5,39)[0..1]  = 1
x(5,109)[0..1]  = 1
x(7,301)[0..1]  = 1
x(8,248)[0..1]  = 1
x(8,348)[0..1]  = 1
x(8,148)[0..1]  = 1
x(12,344)[0..1]  = 1
x(12,396)[0..1]  = 1
x(13,84)[0..1]  = 1
x(14,300)[0..1]  = 1
x(16,295)[0..1]  = 1
x(17,137)[0..1]  = 1
x(19,253)[0..1]  = 1
x(20,149)[0..1]  = 1
x(28,56)[0..1]  = 1
x(33,259)[0..1]  = 1
x(35,147)[0..1]  = 1
x(38,237)[0..1]  = 1
x(39,170)[0..1]  = 1
x(42,256)[0..1]  = 1
x(43,375)[0..1]  = 1
x(47,72)[0..1]  = 1
x(49,268)[0..1]  = 1
x(49,94)[0..1]  = 1
x(51,95)[0..1]  = 1
x(55,267)[0..1]  = 1
x(56,215)[0..1]  = 1
x(60,247)[0..1]  = 1
x(66,299)[0..1]  = 1
x(67,326)[0..1]  = 1
x(67,235)[0..1]  = 1
x(68,306)[0..1]  = 1
x(86,356)[0..1]  = 1
x(87,204)[0..1]  = 1
x(92,276)[0..1]  = 1
x(92,350)[0..1]  = 1
x(95,314)[0..1]  = 1
x(102,384)[0..1]  = 1
x(103,387)[0..1]  = 1
x(103,275)[0..1]  = 1
x(109,216)[0..1]  = 1
x(121,175)[0..1]  = 1
x(122,376)[0..1]  = 1
x(122,261)[0..1]  = 1
x(132,180)[0..1]  = 1
x(134,364)[0..1]  = 1
x(135,178)[0..1]  = 1
x(135,302)[0..1]  = 1
x(140,161)[0..1]  = 1
x(141,218)[0..1]  = 1
x(141,297)[0..1]  = 1
x(145,177)[0..1]  = 1
x(147,233)[0..1]  = 1
x(148,174)[0..1]  = 1
x(148,298)[0..1]  = 1
x(149,191)[0..1]  = 1
x(149,304)[0..1]  = 1
x(161,239)[0..1]  = 1
x(161,383)[0..1]  = 1
x(166,251)[0..1]  = 1
x(166,310)[0..1]  = 1
x(170,399)[0..1]  = 1
x(170,173)[0..1]  = 1
x(178,273)[0..1]  = 1
x(180,334)[0..1]  = 1
x(197,318)[0..1]  = 1
x(199,367)[0..1]  = 1
x(207,296)[0..1]  = 1
x(230,373)[0..1]  = 1
x(230,332)[0..1]  = 1
x(239,390)[0..1]  = 1
x(259,347)[0..1]  = 1
x(261,391)[0..1]  = 1
x(267,288)[0..1]  = 1
x(276,286)[0..1]  = 1
x(277,283)[0..1]  = 1
x(286,385)[0..1]  = 1
x(289,291)[0..1]  = 1
x(301,386)[0..1]  = 1
x(302,339)[0..1]  = 1
x(302,355)[0..1]  = 1
x(302,359)[0..1]  = 1
x(303,352)[0..1]  = 1
x(312,372)[0..1]  = 1
x(329,345)[0..1]  = 1
x(348,370)[0..1]  = 1
x(356,380)[0..1]  = 1
x(364,398)[0..1]  = 1
x(370,1)[0..1]  = 1
x(359,2)[0..1]  = 1
x(376,3)[0..1]  = 1
x(295,5)[0..1]  = 1
x(37,7)[0..1]  = 1
x(334,8)[0..1]  = 1
x(240,10)[0..1]  = 1
x(95,12)[0..1]  = 1
x(316,13)[0..1]  = 1
x(281,14)[0..1]  = 1
x(391,16)[0..1]  = 1
x(205,17)[0..1]  = 1
x(230,19)[0..1]  = 1
x(268,20)[0..1]  = 1
x(253,26)[0..1]  = 1
x(35,28)[0..1]  = 1
x(299,31)[0..1]  = 1
x(312,33)[0..1]  = 1
x(174,35)[0..1]  = 1
x(38,37)[0..1]  = 1
x(254,38)[0..1]  = 1
x(56,42)[0..1]  = 1
x(101,43)[0..1]  = 1
x(310,47)[0..1]  = 1
x(288,48)[0..1]  = 1
x(88,49)[0..1]  = 1
x(88,51)[0..1]  = 1
x(61,54)[0..1]  = 1
x(301,55)[0..1]  = 1
x(289,60)[0..1]  = 1
x(188,61)[0..1]  = 1
x(398,64)[0..1]  = 1
x(173,65)[0..1]  = 1
x(186,66)[0..1]  = 1
x(176,67)[0..1]  = 1
x(118,68)[0..1]  = 1
x(196,69)[0..1]  = 1
x(286,77)[0..1]  = 1
x(140,78)[0..1]  = 1
x(81,79)[0..1]  = 1
x(364,81)[0..1]  = 1
x(306,85)[0..1]  = 1
x(117,86)[0..1]  = 1
x(334,87)[0..1]  = 1
x(213,96)[0..1]  = 1
x(230,101)[0..1]  = 1
x(364,102)[0..1]  = 1
x(142,107)[0..1]  = 1
x(135,111)[0..1]  = 1
x(177,115)[0..1]  = 1
x(201,117)[0..1]  = 1
x(137,118)[0..1]  = 1
x(355,120)[0..1]  = 1
x(390,121)[0..1]  = 1
x(258,122)[0..1]  = 1
x(145,127)[0..1]  = 1
x(171,132)[0..1]  = 1
x(193,134)[0..1]  = 1
x(391,135)[0..1]  = 1
x(367,142)[0..1]  = 1
x(289,145)[0..1]  = 1
x(176,146)[0..1]  = 1
x(248,152)[0..1]  = 1
x(355,160)[0..1]  = 1
x(180,166)[0..1]  = 1
x(391,171)[0..1]  = 1
x(195,176)[0..1]  = 1
x(254,179)[0..1]  = 1
x(396,181)[0..1]  = 1
x(297,186)[0..1]  = 1
x(256,188)[0..1]  = 1
x(267,193)[0..1]  = 1
x(247,195)[0..1]  = 1
x(203,196)[0..1]  = 1
x(285,197)[0..1]  = 1
x(248,199)[0..1]  = 1
x(300,201)[0..1]  = 1
x(253,203)[0..1]  = 1
x(372,205)[0..1]  = 1
x(352,207)[0..1]  = 1
x(314,209)[0..1]  = 1
x(237,212)[0..1]  = 1
x(387,213)[0..1]  = 1
x(367,228)[0..1]  = 1
x(258,230)[0..1]  = 1
x(255,240)[0..1]  = 1
x(334,254)[0..1]  = 1
x(283,255)[0..1]  = 1
x(345,269)[0..1]  = 1
x(299,277)[0..1]  = 1
x(281,279)[0..1]  = 1
x(326,285)[0..1]  = 1
x(334,289)[0..1]  = 1
x(387,303)[0..1]  = 1
x(370,312)[0..1]  = 1
x(398,315)[0..1]  = 1
x(383,316)[0..1]  = 1
x(376,329)[0..1]  = 1
x(391,389)[0..1]  = 1
z(1)[0..1]  = 1
z(2)[0..1]  = 1
z(3)[0..1]  = 1
z(5)[0..1]  = 1
z(7)[0..1]  = 1
z(8)[0..1]  = 1
z(10)[0..1]  = 1
z(12)[0..1]  = 1
z(13)[0..1]  = 1
z(14)[0..1]  = 1
z(16)[0..1]  = 1
z(17)[0..1]  = 1
z(19)[0..1]  = 1
z(20)[0..1]  = 1
z(26)[0..1]  = 1
z(28)[0..1]  = 1
z(31)[0..1]  = 1
z(33)[0..1]  = 1
z(35)[0..1]  = 1
z(37)[0..1]  = 1
z(38)[0..1]  = 1
z(39)[0..1]  = 1
z(42)[0..1]  = 1
z(43)[0..1]  = 1
z(47)[0..1]  = 1
z(48)[0..1]  = 1
z(49)[0..1]  = 1
z(51)[0..1]  = 1
z(54)[0..1]  = 1
z(55)[0..1]  = 1
z(56)[0..1]  = 1
z(60)[0..1]  = 1
z(61)[0..1]  = 1
z(64)[0..1]  = 1
z(65)[0..1]  = 1
z(66)[0..1]  = 1
z(67)[0..1]  = 1
z(68)[0..1]  = 1
z(69)[0..1]  = 1
z(72)[0..1]  = 1
z(77)[0..1]  = 1
z(78)[0..1]  = 1
z(79)[0..1]  = 1
z(81)[0..1]  = 1
z(84)[0..1]  = 1
z(85)[0..1]  = 1
z(86)[0..1]  = 1
z(87)[0..1]  = 1
z(88)[0..1]  = 1
z(92)[0..1]  = 1
z(94)[0..1]  = 1
z(95)[0..1]  = 1
z(96)[0..1]  = 1
z(101)[0..1]  = 1
z(102)[0..1]  = 1
z(103)[0..1]  = 1
z(107)[0..1]  = 1
z(109)[0..1]  = 1
z(111)[0..1]  = 1
z(115)[0..1]  = 1
z(117)[0..1]  = 1
z(118)[0..1]  = 1
z(120)[0..1]  = 1
z(121)[0..1]  = 1
z(122)[0..1]  = 1
z(127)[0..1]  = 1
z(132)[0..1]  = 1
z(134)[0..1]  = 1
z(135)[0..1]  = 1
z(137)[0..1]  = 1
z(140)[0..1]  = 1
z(142)[0..1]  = 1
z(145)[0..1]  = 1
z(146)[0..1]  = 1
z(147)[0..1]  = 1
z(148)[0..1]  = 1
z(149)[0..1]  = 1
z(152)[0..1]  = 1
z(160)[0..1]  = 1
z(161)[0..1]  = 1
z(166)[0..1]  = 1
z(170)[0..1]  = 1
z(171)[0..1]  = 1
z(173)[0..1]  = 1
z(174)[0..1]  = 1
z(175)[0..1]  = 1
z(176)[0..1]  = 1
z(177)[0..1]  = 1
z(178)[0..1]  = 1
z(179)[0..1]  = 1
z(180)[0..1]  = 1
z(181)[0..1]  = 1
z(186)[0..1]  = 1
z(188)[0..1]  = 1
z(191)[0..1]  = 1
z(193)[0..1]  = 1
z(195)[0..1]  = 1
z(196)[0..1]  = 1
z(197)[0..1]  = 1
z(199)[0..1]  = 1
z(201)[0..1]  = 1
z(203)[0..1]  = 1
z(204)[0..1]  = 1
z(205)[0..1]  = 1
z(207)[0..1]  = 1
z(209)[0..1]  = 1
z(212)[0..1]  = 1
z(213)[0..1]  = 1
z(215)[0..1]  = 1
z(216)[0..1]  = 1
z(218)[0..1]  = 1
z(228)[0..1]  = 1
z(230)[0..1]  = 1
z(233)[0..1]  = 1
z(235)[0..1]  = 1
z(237)[0..1]  = 1
z(239)[0..1]  = 1
z(240)[0..1]  = 1
z(247)[0..1]  = 1
z(248)[0..1]  = 1
z(251)[0..1]  = 1
z(253)[0..1]  = 1
z(254)[0..1]  = 1
z(255)[0..1]  = 1
z(256)[0..1]  = 1
z(258)[0..1]  = 1
z(259)[0..1]  = 1
z(261)[0..1]  = 1
z(267)[0..1]  = 1
z(268)[0..1]  = 1
z(269)[0..1]  = 1
z(273)[0..1]  = 1
z(275)[0..1]  = 1
z(276)[0..1]  = 1
z(277)[0..1]  = 1
z(279)[0..1]  = 1
z(281)[0..1]  = 1
z(283)[0..1]  = 1
z(285)[0..1]  = 1
z(286)[0..1]  = 1
z(288)[0..1]  = 1
z(289)[0..1]  = 1
z(291)[0..1]  = 1
z(295)[0..1]  = 1
z(296)[0..1]  = 1
z(297)[0..1]  = 1
z(298)[0..1]  = 1
z(299)[0..1]  = 1
z(300)[0..1]  = 1
z(301)[0..1]  = 1
z(302)[0..1]  = 1
z(303)[0..1]  = 1
z(304)[0..1]  = 1
z(306)[0..1]  = 1
z(310)[0..1]  = 1
z(312)[0..1]  = 1
z(314)[0..1]  = 1
z(315)[0..1]  = 1
z(316)[0..1]  = 1
z(318)[0..1]  = 1
z(326)[0..1]  = 1
z(329)[0..1]  = 1
z(332)[0..1]  = 1
z(334)[0..1]  = 1
z(339)[0..1]  = 1
z(344)[0..1]  = 1
z(345)[0..1]  = 1
z(347)[0..1]  = 1
z(348)[0..1]  = 1
z(350)[0..1]  = 1
z(352)[0..1]  = 1
z(355)[0..1]  = 1
z(356)[0..1]  = 1
z(359)[0..1]  = 1
z(364)[0..1]  = 1
z(367)[0..1]  = 1
z(370)[0..1]  = 1
z(372)[0..1]  = 1
z(373)[0..1]  = 1
z(375)[0..1]  = 1
z(376)[0..1]  = 1
z(380)[0..1]  = 1
z(383)[0..1]  = 1
z(384)[0..1]  = 1
z(385)[0..1]  = 1
z(386)[0..1]  = 1
z(387)[0..1]  = 1
z(389)[0..1]  = 1
z(390)[0..1]  = 1
z(391)[0..1]  = 1
z(392)[0..1]  = 1
z(396)[0..1]  = 1
z(398)[0..1]  = 1
z(399)[0..1]  = 1


CPLEX finished.

CPLEX status: Optimal
Branch-and-Bound nodes: 13774
Objective value: 5787
CPU time: 48.92

